c nIsolatedPIs 0
c maxPI 20
p cnf 691 2014
c gate 21 5 12 0
5 -21 0
12 -21 0
-5 -12 21 0
c gate 22 6 11 0
6 -22 0
11 -22 0
-6 -11 22 0
c gate 23 21 22 0
21 -23 0
22 -23 0
-21 -22 23 0
c gate 24 4 13 0
4 -24 0
13 -24 0
-4 -13 24 0
c gate 25 -21 -22 0
-21 -25 0
-22 -25 0
21 22 25 0
c gate 26 -23 -25 0
-23 -26 0
-25 -26 0
23 25 26 0
c gate 27 24 26 0
24 -27 0
26 -27 0
-24 -26 27 0
c gate 28 -23 -27 0
-23 -28 0
-27 -28 0
23 27 28 0
c gate 29 6 12 0
6 -29 0
12 -29 0
-6 -12 29 0
c gate 30 7 11 0
7 -30 0
11 -30 0
-7 -11 30 0
c gate 31 -29 -30 0
-29 -31 0
-30 -31 0
29 30 31 0
c gate 32 29 30 0
29 -32 0
30 -32 0
-29 -30 32 0
c gate 33 -31 -32 0
-31 -33 0
-32 -33 0
31 32 33 0
c gate 34 5 13 0
5 -34 0
13 -34 0
-5 -13 34 0
c gate 35 33 34 0
33 -35 0
34 -35 0
-33 -34 35 0
c gate 36 -33 -34 0
-33 -36 0
-34 -36 0
33 34 36 0
c gate 37 -35 -36 0
-35 -37 0
-36 -37 0
35 36 37 0
c gate 38 -28 37 0
-28 -38 0
37 -38 0
28 -37 38 0
c gate 39 28 -37 0
28 -39 0
-37 -39 0
-28 37 39 0
c gate 40 -38 -39 0
-38 -40 0
-39 -40 0
38 39 40 0
c gate 41 2 16 0
2 -41 0
16 -41 0
-2 -16 41 0
c gate 42 3 15 0
3 -42 0
15 -42 0
-3 -15 42 0
c gate 43 4 14 0
4 -43 0
14 -43 0
-4 -14 43 0
c gate 44 -42 -43 0
-42 -44 0
-43 -44 0
42 43 44 0
c gate 45 42 43 0
42 -45 0
43 -45 0
-42 -43 45 0
c gate 46 -44 -45 0
-44 -46 0
-45 -46 0
44 45 46 0
c gate 47 41 46 0
41 -47 0
46 -47 0
-41 -46 47 0
c gate 48 -41 -46 0
-41 -48 0
-46 -48 0
41 46 48 0
c gate 49 -47 -48 0
-47 -49 0
-48 -49 0
47 48 49 0
c gate 50 40 49 0
40 -50 0
49 -50 0
-40 -49 50 0
c gate 51 -38 -50 0
-38 -51 0
-50 -51 0
38 50 51 0
c gate 52 3 16 0
3 -52 0
16 -52 0
-3 -16 52 0
c gate 53 4 15 0
4 -53 0
15 -53 0
-4 -15 53 0
c gate 54 5 14 0
5 -54 0
14 -54 0
-5 -14 54 0
c gate 55 -53 -54 0
-53 -55 0
-54 -55 0
53 54 55 0
c gate 56 53 54 0
53 -56 0
54 -56 0
-53 -54 56 0
c gate 57 -55 -56 0
-55 -57 0
-56 -57 0
55 56 57 0
c gate 58 -52 -57 0
-52 -58 0
-57 -58 0
52 57 58 0
c gate 59 52 57 0
52 -59 0
57 -59 0
-52 -57 59 0
c gate 60 -58 -59 0
-58 -60 0
-59 -60 0
58 59 60 0
c gate 61 -32 -35 0
-32 -61 0
-35 -61 0
32 35 61 0
c gate 62 6 13 0
6 -62 0
13 -62 0
-6 -13 62 0
c gate 63 7 12 0
7 -63 0
12 -63 0
-7 -12 63 0
c gate 64 8 11 0
8 -64 0
11 -64 0
-8 -11 64 0
c gate 65 63 64 0
63 -65 0
64 -65 0
-63 -64 65 0
c gate 66 -63 -64 0
-63 -66 0
-64 -66 0
63 64 66 0
c gate 67 -65 -66 0
-65 -67 0
-66 -67 0
65 66 67 0
c gate 68 62 67 0
62 -68 0
67 -68 0
-62 -67 68 0
c gate 69 -62 -67 0
-62 -69 0
-67 -69 0
62 67 69 0
c gate 70 -68 -69 0
-68 -70 0
-69 -70 0
68 69 70 0
c gate 71 -61 70 0
-61 -71 0
70 -71 0
61 -70 71 0
c gate 72 61 -70 0
61 -72 0
-70 -72 0
-61 70 72 0
c gate 73 -71 -72 0
-71 -73 0
-72 -73 0
71 72 73 0
c gate 74 60 73 0
60 -74 0
73 -74 0
-60 -73 74 0
c gate 75 -60 -73 0
-60 -75 0
-73 -75 0
60 73 75 0
c gate 76 -74 -75 0
-74 -76 0
-75 -76 0
74 75 76 0
c gate 77 -51 76 0
-51 -77 0
76 -77 0
51 -76 77 0
c gate 78 2 17 0
2 -78 0
17 -78 0
-2 -17 78 0
c gate 79 1 18 0
1 -79 0
18 -79 0
-1 -18 79 0
c gate 80 -78 -79 0
-78 -80 0
-79 -80 0
78 79 80 0
c gate 81 78 79 0
78 -81 0
79 -81 0
-78 -79 81 0
c gate 82 -80 -81 0
-80 -82 0
-81 -82 0
80 81 82 0
c gate 83 -45 -47 0
-45 -83 0
-47 -83 0
45 47 83 0
c gate 84 -82 83 0
-82 -84 0
83 -84 0
82 -83 84 0
c gate 85 82 -83 0
82 -85 0
-83 -85 0
-82 83 85 0
c gate 86 -84 -85 0
-84 -86 0
-85 -86 0
84 85 86 0
c gate 87 51 -76 0
51 -87 0
-76 -87 0
-51 76 87 0
c gate 88 -77 -87 0
-77 -88 0
-87 -88 0
77 87 88 0
c gate 89 86 88 0
86 -89 0
88 -89 0
-86 -88 89 0
c gate 90 -77 -89 0
-77 -90 0
-89 -90 0
77 89 90 0
c gate 91 1 19 0
1 -91 0
19 -91 0
-1 -19 91 0
c gate 92 2 18 0
2 -92 0
18 -92 0
-2 -18 92 0
c gate 93 3 17 0
3 -93 0
17 -93 0
-3 -17 93 0
c gate 94 92 93 0
92 -94 0
93 -94 0
-92 -93 94 0
c gate 95 -92 -93 0
-92 -95 0
-93 -95 0
92 93 95 0
c gate 96 -94 -95 0
-94 -96 0
-95 -96 0
94 95 96 0
c gate 97 91 96 0
91 -97 0
96 -97 0
-91 -96 97 0
c gate 98 -91 -96 0
-91 -98 0
-96 -98 0
91 96 98 0
c gate 99 -97 -98 0
-97 -99 0
-98 -99 0
97 98 99 0
c gate 100 -56 -59 0
-56 -100 0
-59 -100 0
56 59 100 0
c gate 101 99 -100 0
99 -101 0
-100 -101 0
-99 100 101 0
c gate 102 -99 100 0
-99 -102 0
100 -102 0
99 -100 102 0
c gate 103 -101 -102 0
-101 -103 0
-102 -103 0
101 102 103 0
c gate 104 -81 -103 0
-81 -104 0
-103 -104 0
81 103 104 0
c gate 105 81 103 0
81 -105 0
103 -105 0
-81 -103 105 0
c gate 106 -104 -105 0
-104 -106 0
-105 -106 0
104 105 106 0
c gate 107 -71 -74 0
-71 -107 0
-74 -107 0
71 74 107 0
c gate 108 4 16 0
4 -108 0
16 -108 0
-4 -16 108 0
c gate 109 5 15 0
5 -109 0
15 -109 0
-5 -15 109 0
c gate 110 6 14 0
6 -110 0
14 -110 0
-6 -14 110 0
c gate 111 -109 -110 0
-109 -111 0
-110 -111 0
109 110 111 0
c gate 112 109 110 0
109 -112 0
110 -112 0
-109 -110 112 0
c gate 113 -111 -112 0
-111 -113 0
-112 -113 0
111 112 113 0
c gate 114 -108 -113 0
-108 -114 0
-113 -114 0
108 113 114 0
c gate 115 108 113 0
108 -115 0
113 -115 0
-108 -113 115 0
c gate 116 -114 -115 0
-114 -116 0
-115 -116 0
114 115 116 0
c gate 117 -65 -68 0
-65 -117 0
-68 -117 0
65 68 117 0
c gate 118 7 13 0
7 -118 0
13 -118 0
-7 -13 118 0
c gate 119 8 12 0
8 -119 0
12 -119 0
-8 -12 119 0
c gate 120 9 11 0
9 -120 0
11 -120 0
-9 -11 120 0
c gate 121 119 120 0
119 -121 0
120 -121 0
-119 -120 121 0
c gate 122 -119 -120 0
-119 -122 0
-120 -122 0
119 120 122 0
c gate 123 -121 -122 0
-121 -123 0
-122 -123 0
121 122 123 0
c gate 124 118 123 0
118 -124 0
123 -124 0
-118 -123 124 0
c gate 125 -118 -123 0
-118 -125 0
-123 -125 0
118 123 125 0
c gate 126 -124 -125 0
-124 -126 0
-125 -126 0
124 125 126 0
c gate 127 -117 126 0
-117 -127 0
126 -127 0
117 -126 127 0
c gate 128 117 -126 0
117 -128 0
-126 -128 0
-117 126 128 0
c gate 129 -127 -128 0
-127 -129 0
-128 -129 0
127 128 129 0
c gate 130 116 129 0
116 -130 0
129 -130 0
-116 -129 130 0
c gate 131 -116 -129 0
-116 -131 0
-129 -131 0
116 129 131 0
c gate 132 -130 -131 0
-130 -132 0
-131 -132 0
130 131 132 0
c gate 133 -107 132 0
-107 -133 0
132 -133 0
107 -132 133 0
c gate 134 107 -132 0
107 -134 0
-132 -134 0
-107 132 134 0
c gate 135 -133 -134 0
-133 -135 0
-134 -135 0
133 134 135 0
c gate 136 106 135 0
106 -136 0
135 -136 0
-106 -135 136 0
c gate 137 -106 -135 0
-106 -137 0
-135 -137 0
106 135 137 0
c gate 138 -136 -137 0
-136 -138 0
-137 -138 0
136 137 138 0
c gate 139 -90 138 0
-90 -139 0
138 -139 0
90 -138 139 0
c gate 140 90 -138 0
90 -140 0
-138 -140 0
-90 138 140 0
c gate 141 -139 -140 0
-139 -141 0
-140 -141 0
139 140 141 0
c gate 142 85 141 0
85 -142 0
141 -142 0
-85 -141 142 0
c gate 143 -139 -142 0
-139 -143 0
-142 -143 0
139 142 143 0
c gate 144 -101 -105 0
-101 -144 0
-105 -144 0
101 105 144 0
c gate 145 -133 -136 0
-133 -145 0
-136 -145 0
133 136 145 0
c gate 146 -94 -97 0
-94 -146 0
-97 -146 0
94 97 146 0
c gate 147 2 19 0
2 -147 0
19 -147 0
-2 -19 147 0
c gate 148 3 18 0
3 -148 0
18 -148 0
-3 -18 148 0
c gate 149 4 17 0
4 -149 0
17 -149 0
-4 -17 149 0
c gate 150 148 149 0
148 -150 0
149 -150 0
-148 -149 150 0
c gate 151 -148 -149 0
-148 -151 0
-149 -151 0
148 149 151 0
c gate 152 -150 -151 0
-150 -152 0
-151 -152 0
150 151 152 0
c gate 153 147 152 0
147 -153 0
152 -153 0
-147 -152 153 0
c gate 154 -147 -152 0
-147 -154 0
-152 -154 0
147 152 154 0
c gate 155 -153 -154 0
-153 -155 0
-154 -155 0
153 154 155 0
c gate 156 -112 -115 0
-112 -156 0
-115 -156 0
112 115 156 0
c gate 157 155 -156 0
155 -157 0
-156 -157 0
-155 156 157 0
c gate 158 -155 156 0
-155 -158 0
156 -158 0
155 -156 158 0
c gate 159 -157 -158 0
-157 -159 0
-158 -159 0
157 158 159 0
c gate 160 146 -159 0
146 -160 0
-159 -160 0
-146 159 160 0
c gate 161 -146 159 0
-146 -161 0
159 -161 0
146 -159 161 0
c gate 162 -160 -161 0
-160 -162 0
-161 -162 0
160 161 162 0
c gate 163 -127 -130 0
-127 -163 0
-130 -163 0
127 130 163 0
c gate 164 5 16 0
5 -164 0
16 -164 0
-5 -16 164 0
c gate 165 6 15 0
6 -165 0
15 -165 0
-6 -15 165 0
c gate 166 7 14 0
7 -166 0
14 -166 0
-7 -14 166 0
c gate 167 -165 -166 0
-165 -167 0
-166 -167 0
165 166 167 0
c gate 168 165 166 0
165 -168 0
166 -168 0
-165 -166 168 0
c gate 169 -167 -168 0
-167 -169 0
-168 -169 0
167 168 169 0
c gate 170 -164 -169 0
-164 -170 0
-169 -170 0
164 169 170 0
c gate 171 164 169 0
164 -171 0
169 -171 0
-164 -169 171 0
c gate 172 -170 -171 0
-170 -172 0
-171 -172 0
170 171 172 0
c gate 173 -121 -124 0
-121 -173 0
-124 -173 0
121 124 173 0
c gate 174 8 13 0
8 -174 0
13 -174 0
-8 -13 174 0
c gate 175 9 12 0
9 -175 0
12 -175 0
-9 -12 175 0
c gate 176 10 11 0
10 -176 0
11 -176 0
-10 -11 176 0
c gate 177 175 176 0
175 -177 0
176 -177 0
-175 -176 177 0
c gate 178 -175 -176 0
-175 -178 0
-176 -178 0
175 176 178 0
c gate 179 -177 -178 0
-177 -179 0
-178 -179 0
177 178 179 0
c gate 180 174 179 0
174 -180 0
179 -180 0
-174 -179 180 0
c gate 181 -174 -179 0
-174 -181 0
-179 -181 0
174 179 181 0
c gate 182 -180 -181 0
-180 -182 0
-181 -182 0
180 181 182 0
c gate 183 -173 182 0
-173 -183 0
182 -183 0
173 -182 183 0
c gate 184 173 -182 0
173 -184 0
-182 -184 0
-173 182 184 0
c gate 185 -183 -184 0
-183 -185 0
-184 -185 0
183 184 185 0
c gate 186 172 185 0
172 -186 0
185 -186 0
-172 -185 186 0
c gate 187 -172 -185 0
-172 -187 0
-185 -187 0
172 185 187 0
c gate 188 -186 -187 0
-186 -188 0
-187 -188 0
186 187 188 0
c gate 189 -163 188 0
-163 -189 0
188 -189 0
163 -188 189 0
c gate 190 163 -188 0
163 -190 0
-188 -190 0
-163 188 190 0
c gate 191 -189 -190 0
-189 -191 0
-190 -191 0
189 190 191 0
c gate 192 162 191 0
162 -192 0
191 -192 0
-162 -191 192 0
c gate 193 -162 -191 0
-162 -193 0
-191 -193 0
162 191 193 0
c gate 194 -192 -193 0
-192 -194 0
-193 -194 0
192 193 194 0
c gate 195 -145 194 0
-145 -195 0
194 -195 0
145 -194 195 0
c gate 196 145 -194 0
145 -196 0
-194 -196 0
-145 194 196 0
c gate 197 -195 -196 0
-195 -197 0
-196 -197 0
195 196 197 0
c gate 198 -144 197 0
-144 -198 0
197 -198 0
144 -197 198 0
c gate 199 144 -197 0
144 -199 0
-197 -199 0
-144 197 199 0
c gate 200 -198 -199 0
-198 -200 0
-199 -200 0
198 199 200 0
c gate 201 -143 200 0
-143 -201 0
200 -201 0
143 -200 201 0
c gate 202 1 20 0
1 -202 0
20 -202 0
-1 -20 202 0
c gate 203 143 -200 0
143 -203 0
-200 -203 0
-143 200 203 0
c gate 204 -201 -203 0
-201 -204 0
-203 -204 0
201 203 204 0
c gate 205 202 204 0
202 -205 0
204 -205 0
-202 -204 205 0
c gate 206 -201 -205 0
-201 -206 0
-205 -206 0
201 205 206 0
c gate 207 2 20 0
2 -207 0
20 -207 0
-2 -20 207 0
c gate 208 -195 -198 0
-195 -208 0
-198 -208 0
195 198 208 0
c gate 209 -157 -161 0
-157 -209 0
-161 -209 0
157 161 209 0
c gate 210 -189 -192 0
-189 -210 0
-192 -210 0
189 192 210 0
c gate 211 -150 -153 0
-150 -211 0
-153 -211 0
150 153 211 0
c gate 212 3 19 0
3 -212 0
19 -212 0
-3 -19 212 0
c gate 213 4 18 0
4 -213 0
18 -213 0
-4 -18 213 0
c gate 214 5 17 0
5 -214 0
17 -214 0
-5 -17 214 0
c gate 215 213 214 0
213 -215 0
214 -215 0
-213 -214 215 0
c gate 216 -213 -214 0
-213 -216 0
-214 -216 0
213 214 216 0
c gate 217 -215 -216 0
-215 -217 0
-216 -217 0
215 216 217 0
c gate 218 212 217 0
212 -218 0
217 -218 0
-212 -217 218 0
c gate 219 -212 -217 0
-212 -219 0
-217 -219 0
212 217 219 0
c gate 220 -218 -219 0
-218 -220 0
-219 -220 0
218 219 220 0
c gate 221 -168 -171 0
-168 -221 0
-171 -221 0
168 171 221 0
c gate 222 220 -221 0
220 -222 0
-221 -222 0
-220 221 222 0
c gate 223 -220 221 0
-220 -223 0
221 -223 0
220 -221 223 0
c gate 224 -222 -223 0
-222 -224 0
-223 -224 0
222 223 224 0
c gate 225 211 -224 0
211 -225 0
-224 -225 0
-211 224 225 0
c gate 226 -211 224 0
-211 -226 0
224 -226 0
211 -224 226 0
c gate 227 -225 -226 0
-225 -227 0
-226 -227 0
225 226 227 0
c gate 228 -183 -186 0
-183 -228 0
-186 -228 0
183 186 228 0
c gate 229 6 16 0
6 -229 0
16 -229 0
-6 -16 229 0
c gate 230 7 15 0
7 -230 0
15 -230 0
-7 -15 230 0
c gate 231 8 14 0
8 -231 0
14 -231 0
-8 -14 231 0
c gate 232 -230 -231 0
-230 -232 0
-231 -232 0
230 231 232 0
c gate 233 230 231 0
230 -233 0
231 -233 0
-230 -231 233 0
c gate 234 -232 -233 0
-232 -234 0
-233 -234 0
232 233 234 0
c gate 235 -229 -234 0
-229 -235 0
-234 -235 0
229 234 235 0
c gate 236 229 234 0
229 -236 0
234 -236 0
-229 -234 236 0
c gate 237 -235 -236 0
-235 -237 0
-236 -237 0
235 236 237 0
c gate 238 10 12 0
10 -238 0
12 -238 0
-10 -12 238 0
c gate 239 9 13 0
9 -239 0
13 -239 0
-9 -13 239 0
c gate 240 238 239 0
238 -240 0
239 -240 0
-238 -239 240 0
c gate 241 -238 -239 0
-238 -241 0
-239 -241 0
238 239 241 0
c gate 242 -240 -241 0
-240 -242 0
-241 -242 0
240 241 242 0
c gate 243 -177 -180 0
-177 -243 0
-180 -243 0
177 180 243 0
c gate 244 242 -243 0
242 -244 0
-243 -244 0
-242 243 244 0
c gate 245 -242 243 0
-242 -245 0
243 -245 0
242 -243 245 0
c gate 246 -244 -245 0
-244 -246 0
-245 -246 0
244 245 246 0
c gate 247 237 246 0
237 -247 0
246 -247 0
-237 -246 247 0
c gate 248 -237 -246 0
-237 -248 0
-246 -248 0
237 246 248 0
c gate 249 -247 -248 0
-247 -249 0
-248 -249 0
247 248 249 0
c gate 250 -228 249 0
-228 -250 0
249 -250 0
228 -249 250 0
c gate 251 228 -249 0
228 -251 0
-249 -251 0
-228 249 251 0
c gate 252 -250 -251 0
-250 -252 0
-251 -252 0
250 251 252 0
c gate 253 227 252 0
227 -253 0
252 -253 0
-227 -252 253 0
c gate 254 -227 -252 0
-227 -254 0
-252 -254 0
227 252 254 0
c gate 255 -253 -254 0
-253 -255 0
-254 -255 0
253 254 255 0
c gate 256 -210 255 0
-210 -256 0
255 -256 0
210 -255 256 0
c gate 257 210 -255 0
210 -257 0
-255 -257 0
-210 255 257 0
c gate 258 -256 -257 0
-256 -258 0
-257 -258 0
256 257 258 0
c gate 259 -209 258 0
-209 -259 0
258 -259 0
209 -258 259 0
c gate 260 209 -258 0
209 -260 0
-258 -260 0
-209 258 260 0
c gate 261 -259 -260 0
-259 -261 0
-260 -261 0
259 260 261 0
c gate 262 -208 261 0
-208 -262 0
261 -262 0
208 -261 262 0
c gate 263 208 -261 0
208 -263 0
-261 -263 0
-208 261 263 0
c gate 264 -262 -263 0
-262 -264 0
-263 -264 0
262 263 264 0
c gate 265 207 264 0
207 -265 0
264 -265 0
-207 -264 265 0
c gate 266 -207 -264 0
-207 -266 0
-264 -266 0
207 264 266 0
c gate 267 -265 -266 0
-265 -267 0
-266 -267 0
265 266 267 0
c gate 268 206 -267 0
206 -268 0
-267 -268 0
-206 267 268 0
c gate 269 1 17 0
1 -269 0
17 -269 0
-1 -17 269 0
c gate 270 3 14 0
3 -270 0
14 -270 0
-3 -14 270 0
c gate 271 2 15 0
2 -271 0
15 -271 0
-2 -15 271 0
c gate 272 270 271 0
270 -272 0
271 -272 0
-270 -271 272 0
c gate 273 1 16 0
1 -273 0
16 -273 0
-1 -16 273 0
c gate 274 -270 -271 0
-270 -274 0
-271 -274 0
270 271 274 0
c gate 275 -272 -274 0
-272 -275 0
-274 -275 0
272 274 275 0
c gate 276 273 275 0
273 -276 0
275 -276 0
-273 -275 276 0
c gate 277 -272 -276 0
-272 -277 0
-276 -277 0
272 276 277 0
c gate 278 269 -277 0
269 -278 0
-277 -278 0
-269 277 278 0
c gate 279 5 11 0
5 -279 0
11 -279 0
-5 -11 279 0
c gate 280 4 12 0
4 -280 0
12 -280 0
-4 -12 280 0
c gate 281 279 280 0
279 -281 0
280 -281 0
-279 -280 281 0
c gate 282 -279 -280 0
-279 -282 0
-280 -282 0
279 280 282 0
c gate 283 -281 -282 0
-281 -283 0
-282 -283 0
281 282 283 0
c gate 284 3 13 0
3 -284 0
13 -284 0
-3 -13 284 0
c gate 285 283 284 0
283 -285 0
284 -285 0
-283 -284 285 0
c gate 286 -281 -285 0
-281 -286 0
-285 -286 0
281 285 286 0
c gate 287 -24 -26 0
-24 -287 0
-26 -287 0
24 26 287 0
c gate 288 -27 -287 0
-27 -288 0
-287 -288 0
27 287 288 0
c gate 289 -286 288 0
-286 -289 0
288 -289 0
286 -288 289 0
c gate 290 -273 -275 0
-273 -290 0
-275 -290 0
273 275 290 0
c gate 291 -276 -290 0
-276 -291 0
-290 -291 0
276 290 291 0
c gate 292 286 -288 0
286 -292 0
-288 -292 0
-286 288 292 0
c gate 293 -289 -292 0
-289 -293 0
-292 -293 0
289 292 293 0
c gate 294 291 293 0
291 -294 0
293 -294 0
-291 -293 294 0
c gate 295 -289 -294 0
-289 -295 0
-294 -295 0
289 294 295 0
c gate 296 -40 -49 0
-40 -296 0
-49 -296 0
40 49 296 0
c gate 297 -50 -296 0
-50 -297 0
-296 -297 0
50 296 297 0
c gate 298 -295 297 0
-295 -298 0
297 -298 0
295 -297 298 0
c gate 299 295 -297 0
295 -299 0
-297 -299 0
-295 297 299 0
c gate 300 -298 -299 0
-298 -300 0
-299 -300 0
298 299 300 0
c gate 301 -269 277 0
-269 -301 0
277 -301 0
269 -277 301 0
c gate 302 -278 -301 0
-278 -302 0
-301 -302 0
278 301 302 0
c gate 303 300 302 0
300 -303 0
302 -303 0
-300 -302 303 0
c gate 304 -298 -303 0
-298 -304 0
-303 -304 0
298 303 304 0
c gate 305 -86 -88 0
-86 -305 0
-88 -305 0
86 88 305 0
c gate 306 -89 -305 0
-89 -306 0
-305 -306 0
89 305 306 0
c gate 307 -304 306 0
-304 -307 0
306 -307 0
304 -306 307 0
c gate 308 304 -306 0
304 -308 0
-306 -308 0
-304 306 308 0
c gate 309 -307 -308 0
-307 -309 0
-308 -309 0
307 308 309 0
c gate 310 278 309 0
278 -310 0
309 -310 0
-278 -309 310 0
c gate 311 -278 -309 0
-278 -311 0
-309 -311 0
278 309 311 0
c gate 312 -310 -311 0
-310 -312 0
-311 -312 0
310 311 312 0
c gate 313 2 14 0
2 -313 0
14 -313 0
-2 -14 313 0
c gate 314 1 15 0
1 -314 0
15 -314 0
-1 -15 314 0
c gate 315 313 314 0
313 -315 0
314 -315 0
-313 -314 315 0
c gate 316 4 11 0
4 -316 0
11 -316 0
-4 -11 316 0
c gate 317 3 12 0
3 -317 0
12 -317 0
-3 -12 317 0
c gate 318 316 317 0
316 -318 0
317 -318 0
-316 -317 318 0
c gate 319 -316 -317 0
-316 -319 0
-317 -319 0
316 317 319 0
c gate 320 -318 -319 0
-318 -320 0
-319 -320 0
318 319 320 0
c gate 321 2 13 0
2 -321 0
13 -321 0
-2 -13 321 0
c gate 322 320 321 0
320 -322 0
321 -322 0
-320 -321 322 0
c gate 323 -318 -322 0
-318 -323 0
-322 -323 0
318 322 323 0
c gate 324 -283 -284 0
-283 -324 0
-284 -324 0
283 284 324 0
c gate 325 -285 -324 0
-285 -325 0
-324 -325 0
285 324 325 0
c gate 326 -323 325 0
-323 -326 0
325 -326 0
323 -325 326 0
c gate 327 -313 -314 0
-313 -327 0
-314 -327 0
313 314 327 0
c gate 328 -315 -327 0
-315 -328 0
-327 -328 0
315 327 328 0
c gate 329 323 -325 0
323 -329 0
-325 -329 0
-323 325 329 0
c gate 330 -326 -329 0
-326 -330 0
-329 -330 0
326 329 330 0
c gate 331 328 330 0
328 -331 0
330 -331 0
-328 -330 331 0
c gate 332 -326 -331 0
-326 -332 0
-331 -332 0
326 331 332 0
c gate 333 -291 -293 0
-291 -333 0
-293 -333 0
291 293 333 0
c gate 334 -294 -333 0
-294 -334 0
-333 -334 0
294 333 334 0
c gate 335 -332 334 0
-332 -335 0
334 -335 0
332 -334 335 0
c gate 336 332 -334 0
332 -336 0
-334 -336 0
-332 334 336 0
c gate 337 -335 -336 0
-335 -337 0
-336 -337 0
335 336 337 0
c gate 338 315 337 0
315 -338 0
337 -338 0
-315 -337 338 0
c gate 339 -315 -337 0
-315 -339 0
-337 -339 0
315 337 339 0
c gate 340 -338 -339 0
-338 -340 0
-339 -340 0
338 339 340 0
c gate 341 -320 -321 0
-320 -341 0
-321 -341 0
320 321 341 0
c gate 342 -322 -341 0
-322 -342 0
-341 -342 0
322 341 342 0
c gate 343 3 11 0
3 -343 0
11 -343 0
-3 -11 343 0
c gate 344 2 12 0
2 -344 0
12 -344 0
-2 -12 344 0
c gate 345 343 344 0
343 -345 0
344 -345 0
-343 -344 345 0
c gate 346 -343 -344 0
-343 -346 0
-344 -346 0
343 344 346 0
c gate 347 1 13 0
1 -347 0
13 -347 0
-1 -13 347 0
c gate 348 -346 347 0
-346 -348 0
347 -348 0
346 -347 348 0
c gate 349 -345 -348 0
-345 -349 0
-348 -349 0
345 348 349 0
c gate 350 342 -349 0
342 -350 0
-349 -350 0
-342 349 350 0
c gate 351 1 14 0
1 -351 0
14 -351 0
-1 -14 351 0
c gate 352 -342 349 0
-342 -352 0
349 -352 0
342 -349 352 0
c gate 353 -350 -352 0
-350 -353 0
-352 -353 0
350 352 353 0
c gate 354 351 353 0
351 -354 0
353 -354 0
-351 -353 354 0
c gate 355 -350 -354 0
-350 -355 0
-354 -355 0
350 354 355 0
c gate 356 -328 -330 0
-328 -356 0
-330 -356 0
328 330 356 0
c gate 357 -331 -356 0
-331 -357 0
-356 -357 0
331 356 357 0
c gate 358 -355 357 0
-355 -358 0
357 -358 0
355 -357 358 0
c gate 359 340 358 0
340 -359 0
358 -359 0
-340 -358 359 0
c gate 360 -335 -338 0
-335 -360 0
-338 -360 0
335 338 360 0
c gate 361 -300 -302 0
-300 -361 0
-302 -361 0
300 302 361 0
c gate 362 -303 -361 0
-303 -362 0
-361 -362 0
303 361 362 0
c gate 363 -360 362 0
-360 -363 0
362 -363 0
360 -362 363 0
c gate 364 360 -362 0
360 -364 0
-362 -364 0
-360 362 364 0
c gate 365 -363 -364 0
-363 -365 0
-364 -365 0
363 364 365 0
c gate 366 359 365 0
359 -366 0
365 -366 0
-359 -365 366 0
c gate 367 312 366 0
312 -367 0
366 -367 0
-312 -366 367 0
c gate 368 -363 -366 0
-363 -368 0
-366 -368 0
363 366 368 0
c gate 369 -312 -368 0
-312 -369 0
-368 -369 0
312 368 369 0
c gate 370 312 368 0
312 -370 0
368 -370 0
-312 -368 370 0
c gate 371 -369 -370 0
-369 -371 0
-370 -371 0
369 370 371 0
c gate 372 -359 -365 0
-359 -372 0
-365 -372 0
359 365 372 0
c gate 373 355 -357 0
355 -373 0
-357 -373 0
-355 357 373 0
c gate 374 -351 -353 0
-351 -374 0
-353 -374 0
351 353 374 0
c gate 375 -3 -13 0
-3 -375 0
-13 -375 0
3 13 375 0
c gate 376 -284 -375 0
-284 -376 0
-375 -376 0
284 375 376 0
c gate 377 1 11 0
1 -377 0
11 -377 0
-1 -11 377 0
c gate 378 344 377 0
344 -378 0
377 -378 0
-344 -377 378 0
c gate 379 -376 378 0
-376 -379 0
378 -379 0
376 -378 379 0
c gate 380 -354 379 0
-354 -380 0
379 -380 0
354 -379 380 0
c gate 381 -374 380 0
-374 -381 0
380 -381 0
374 -380 381 0
c gate 382 -358 381 0
-358 -382 0
381 -382 0
358 -381 382 0
c gate 383 -373 382 0
-373 -383 0
382 -383 0
373 -382 383 0
c gate 384 340 383 0
340 -384 0
383 -384 0
-340 -383 384 0
c gate 385 -366 384 0
-366 -385 0
384 -385 0
366 -384 385 0
c gate 386 -372 385 0
-372 -386 0
385 -386 0
372 -385 386 0
c gate 387 -371 386 0
-371 -387 0
386 -387 0
371 -386 387 0
c gate 388 -367 -387 0
-367 -388 0
-387 -388 0
367 387 388 0
c gate 389 312 363 0
312 -389 0
363 -389 0
-312 -363 389 0
c gate 390 -307 -310 0
-307 -390 0
-310 -390 0
307 310 390 0
c gate 391 -85 -141 0
-85 -391 0
-141 -391 0
85 141 391 0
c gate 392 -142 -391 0
-142 -392 0
-391 -392 0
142 391 392 0
c gate 393 -390 392 0
-390 -393 0
392 -393 0
390 -392 393 0
c gate 394 390 -392 0
390 -394 0
-392 -394 0
-390 392 394 0
c gate 395 -393 -394 0
-393 -395 0
-394 -395 0
393 394 395 0
c gate 396 389 395 0
389 -396 0
395 -396 0
-389 -395 396 0
c gate 397 -389 -395 0
-389 -397 0
-395 -397 0
389 395 397 0
c gate 398 -396 -397 0
-396 -398 0
-397 -398 0
396 397 398 0
c gate 399 -388 398 0
-388 -399 0
398 -399 0
388 -398 399 0
c gate 400 -268 399 0
-268 -400 0
399 -400 0
268 -399 400 0
c gate 401 -202 -204 0
-202 -401 0
-204 -401 0
202 204 401 0
c gate 402 -205 -401 0
-205 -402 0
-401 -402 0
205 401 402 0
c gate 403 -393 -402 0
-393 -403 0
-402 -403 0
393 402 403 0
c gate 404 393 402 0
393 -404 0
402 -404 0
-393 -402 404 0
c gate 405 -403 -404 0
-403 -405 0
-404 -405 0
403 404 405 0
c gate 406 400 405 0
400 -406 0
405 -406 0
-400 -405 406 0
c gate 407 -206 267 0
-206 -407 0
267 -407 0
206 -267 407 0
c gate 408 -262 -265 0
-262 -408 0
-265 -408 0
262 265 408 0
c gate 409 3 20 0
3 -409 0
20 -409 0
-3 -20 409 0
c gate 410 -256 -259 0
-256 -410 0
-259 -410 0
256 259 410 0
c gate 411 -222 -226 0
-222 -411 0
-226 -411 0
222 226 411 0
c gate 412 -250 -253 0
-250 -412 0
-253 -412 0
250 253 412 0
c gate 413 -215 -218 0
-215 -413 0
-218 -413 0
215 218 413 0
c gate 414 4 19 0
4 -414 0
19 -414 0
-4 -19 414 0
c gate 415 5 18 0
5 -415 0
18 -415 0
-5 -18 415 0
c gate 416 6 17 0
6 -416 0
17 -416 0
-6 -17 416 0
c gate 417 415 416 0
415 -417 0
416 -417 0
-415 -416 417 0
c gate 418 -415 -416 0
-415 -418 0
-416 -418 0
415 416 418 0
c gate 419 -417 -418 0
-417 -419 0
-418 -419 0
417 418 419 0
c gate 420 414 419 0
414 -420 0
419 -420 0
-414 -419 420 0
c gate 421 -414 -419 0
-414 -421 0
-419 -421 0
414 419 421 0
c gate 422 -420 -421 0
-420 -422 0
-421 -422 0
420 421 422 0
c gate 423 -233 -236 0
-233 -423 0
-236 -423 0
233 236 423 0
c gate 424 422 -423 0
422 -424 0
-423 -424 0
-422 423 424 0
c gate 425 -422 423 0
-422 -425 0
423 -425 0
422 -423 425 0
c gate 426 -424 -425 0
-424 -426 0
-425 -426 0
424 425 426 0
c gate 427 413 -426 0
413 -427 0
-426 -427 0
-413 426 427 0
c gate 428 -413 426 0
-413 -428 0
426 -428 0
413 -426 428 0
c gate 429 -427 -428 0
-427 -429 0
-428 -429 0
427 428 429 0
c gate 430 -244 -247 0
-244 -430 0
-247 -430 0
244 247 430 0
c gate 431 7 16 0
7 -431 0
16 -431 0
-7 -16 431 0
c gate 432 8 15 0
8 -432 0
15 -432 0
-8 -15 432 0
c gate 433 9 14 0
9 -433 0
14 -433 0
-9 -14 433 0
c gate 434 -432 -433 0
-432 -434 0
-433 -434 0
432 433 434 0
c gate 435 432 433 0
432 -435 0
433 -435 0
-432 -433 435 0
c gate 436 -434 -435 0
-434 -436 0
-435 -436 0
434 435 436 0
c gate 437 -431 -436 0
-431 -437 0
-436 -437 0
431 436 437 0
c gate 438 431 436 0
431 -438 0
436 -438 0
-431 -436 438 0
c gate 439 -437 -438 0
-437 -439 0
-438 -439 0
437 438 439 0
c gate 440 10 13 0
10 -440 0
13 -440 0
-10 -13 440 0
c gate 441 -175 440 0
-175 -441 0
440 -441 0
175 -440 441 0
c gate 442 439 441 0
439 -442 0
441 -442 0
-439 -441 442 0
c gate 443 -439 -441 0
-439 -443 0
-441 -443 0
439 441 443 0
c gate 444 -442 -443 0
-442 -444 0
-443 -444 0
442 443 444 0
c gate 445 -430 444 0
-430 -445 0
444 -445 0
430 -444 445 0
c gate 446 430 -444 0
430 -446 0
-444 -446 0
-430 444 446 0
c gate 447 -445 -446 0
-445 -447 0
-446 -447 0
445 446 447 0
c gate 448 429 447 0
429 -448 0
447 -448 0
-429 -447 448 0
c gate 449 -429 -447 0
-429 -449 0
-447 -449 0
429 447 449 0
c gate 450 -448 -449 0
-448 -450 0
-449 -450 0
448 449 450 0
c gate 451 -412 450 0
-412 -451 0
450 -451 0
412 -450 451 0
c gate 452 412 -450 0
412 -452 0
-450 -452 0
-412 450 452 0
c gate 453 -451 -452 0
-451 -453 0
-452 -453 0
451 452 453 0
c gate 454 -411 453 0
-411 -454 0
453 -454 0
411 -453 454 0
c gate 455 411 -453 0
411 -455 0
-453 -455 0
-411 453 455 0
c gate 456 -454 -455 0
-454 -456 0
-455 -456 0
454 455 456 0
c gate 457 -410 456 0
-410 -457 0
456 -457 0
410 -456 457 0
c gate 458 410 -456 0
410 -458 0
-456 -458 0
-410 456 458 0
c gate 459 -457 -458 0
-457 -459 0
-458 -459 0
457 458 459 0
c gate 460 409 459 0
409 -460 0
459 -460 0
-409 -459 460 0
c gate 461 -409 -459 0
-409 -461 0
-459 -461 0
409 459 461 0
c gate 462 -460 -461 0
-460 -462 0
-461 -462 0
460 461 462 0
c gate 463 -408 462 0
-408 -463 0
462 -463 0
408 -462 463 0
c gate 464 -407 -463 0
-407 -464 0
-463 -464 0
407 463 464 0
c gate 465 -393 -396 0
-393 -465 0
-396 -465 0
393 396 465 0
c gate 466 402 -465 0
402 -466 0
-465 -466 0
-402 465 466 0
c gate 467 -268 466 0
-268 -467 0
466 -467 0
268 -466 467 0
c gate 468 464 -467 0
464 -468 0
-467 -468 0
-464 467 468 0
c gate 469 -406 468 0
-406 -469 0
468 -469 0
406 -468 469 0
c gate 470 408 -462 0
408 -470 0
-462 -470 0
-408 462 470 0
c gate 471 -457 -460 0
-457 -471 0
-460 -471 0
457 460 471 0
c gate 472 4 20 0
4 -472 0
20 -472 0
-4 -20 472 0
c gate 473 -451 -454 0
-451 -473 0
-454 -473 0
451 454 473 0
c gate 474 -424 -428 0
-424 -474 0
-428 -474 0
424 428 474 0
c gate 475 -445 -448 0
-445 -475 0
-448 -475 0
445 448 475 0
c gate 476 -417 -420 0
-417 -476 0
-420 -476 0
417 420 476 0
c gate 477 5 19 0
5 -477 0
19 -477 0
-5 -19 477 0
c gate 478 6 18 0
6 -478 0
18 -478 0
-6 -18 478 0
c gate 479 7 17 0
7 -479 0
17 -479 0
-7 -17 479 0
c gate 480 478 479 0
478 -480 0
479 -480 0
-478 -479 480 0
c gate 481 -478 -479 0
-478 -481 0
-479 -481 0
478 479 481 0
c gate 482 -480 -481 0
-480 -482 0
-481 -482 0
480 481 482 0
c gate 483 477 482 0
477 -483 0
482 -483 0
-477 -482 483 0
c gate 484 -477 -482 0
-477 -484 0
-482 -484 0
477 482 484 0
c gate 485 -483 -484 0
-483 -485 0
-484 -485 0
483 484 485 0
c gate 486 -435 -438 0
-435 -486 0
-438 -486 0
435 438 486 0
c gate 487 485 -486 0
485 -487 0
-486 -487 0
-485 486 487 0
c gate 488 -485 486 0
-485 -488 0
486 -488 0
485 -486 488 0
c gate 489 -487 -488 0
-487 -489 0
-488 -489 0
487 488 489 0
c gate 490 476 -489 0
476 -490 0
-489 -490 0
-476 489 490 0
c gate 491 -476 489 0
-476 -491 0
489 -491 0
476 -489 491 0
c gate 492 -490 -491 0
-490 -492 0
-491 -492 0
490 491 492 0
c gate 493 -240 -442 0
-240 -493 0
-442 -493 0
240 442 493 0
c gate 494 8 16 0
8 -494 0
16 -494 0
-8 -16 494 0
c gate 495 9 15 0
9 -495 0
15 -495 0
-9 -15 495 0
c gate 496 10 14 0
10 -496 0
14 -496 0
-10 -14 496 0
c gate 497 495 496 0
495 -497 0
496 -497 0
-495 -496 497 0
c gate 498 -495 -496 0
-495 -498 0
-496 -498 0
495 496 498 0
c gate 499 -497 -498 0
-497 -499 0
-498 -499 0
497 498 499 0
c gate 500 494 499 0
494 -500 0
499 -500 0
-494 -499 500 0
c gate 501 -494 -499 0
-494 -501 0
-499 -501 0
494 499 501 0
c gate 502 -500 -501 0
-500 -502 0
-501 -502 0
500 501 502 0
c gate 503 -493 502 0
-493 -503 0
502 -503 0
493 -502 503 0
c gate 504 493 -502 0
493 -504 0
-502 -504 0
-493 502 504 0
c gate 505 -503 -504 0
-503 -505 0
-504 -505 0
503 504 505 0
c gate 506 492 505 0
492 -506 0
505 -506 0
-492 -505 506 0
c gate 507 -492 -505 0
-492 -507 0
-505 -507 0
492 505 507 0
c gate 508 -506 -507 0
-506 -508 0
-507 -508 0
506 507 508 0
c gate 509 -475 508 0
-475 -509 0
508 -509 0
475 -508 509 0
c gate 510 475 -508 0
475 -510 0
-508 -510 0
-475 508 510 0
c gate 511 -509 -510 0
-509 -511 0
-510 -511 0
509 510 511 0
c gate 512 -474 511 0
-474 -512 0
511 -512 0
474 -511 512 0
c gate 513 474 -511 0
474 -513 0
-511 -513 0
-474 511 513 0
c gate 514 -512 -513 0
-512 -514 0
-513 -514 0
512 513 514 0
c gate 515 -473 514 0
-473 -515 0
514 -515 0
473 -514 515 0
c gate 516 473 -514 0
473 -516 0
-514 -516 0
-473 514 516 0
c gate 517 -515 -516 0
-515 -517 0
-516 -517 0
515 516 517 0
c gate 518 472 517 0
472 -518 0
517 -518 0
-472 -517 518 0
c gate 519 -472 -517 0
-472 -519 0
-517 -519 0
472 517 519 0
c gate 520 -518 -519 0
-518 -520 0
-519 -520 0
518 519 520 0
c gate 521 471 -520 0
471 -521 0
-520 -521 0
-471 520 521 0
c gate 522 -470 -521 0
-470 -522 0
-521 -522 0
470 521 522 0
c gate 523 -469 522 0
-469 -523 0
522 -523 0
469 -522 523 0
c gate 524 -471 520 0
-471 -524 0
520 -524 0
471 -520 524 0
c gate 525 -515 -518 0
-515 -525 0
-518 -525 0
515 518 525 0
c gate 526 5 20 0
5 -526 0
20 -526 0
-5 -20 526 0
c gate 527 -509 -512 0
-509 -527 0
-512 -527 0
509 512 527 0
c gate 528 -487 -491 0
-487 -528 0
-491 -528 0
487 491 528 0
c gate 529 -503 -506 0
-503 -529 0
-506 -529 0
503 506 529 0
c gate 530 10 15 0
10 -530 0
15 -530 0
-10 -15 530 0
c gate 531 9 16 0
9 -531 0
16 -531 0
-9 -16 531 0
c gate 532 530 531 0
530 -532 0
531 -532 0
-530 -531 532 0
c gate 533 -530 -531 0
-530 -533 0
-531 -533 0
530 531 533 0
c gate 534 -532 -533 0
-532 -534 0
-533 -534 0
532 533 534 0
c gate 535 -480 -483 0
-480 -535 0
-483 -535 0
480 483 535 0
c gate 536 6 19 0
6 -536 0
19 -536 0
-6 -19 536 0
c gate 537 7 18 0
7 -537 0
18 -537 0
-7 -18 537 0
c gate 538 8 17 0
8 -538 0
17 -538 0
-8 -17 538 0
c gate 539 537 538 0
537 -539 0
538 -539 0
-537 -538 539 0
c gate 540 -537 -538 0
-537 -540 0
-538 -540 0
537 538 540 0
c gate 541 -539 -540 0
-539 -541 0
-540 -541 0
539 540 541 0
c gate 542 536 541 0
536 -542 0
541 -542 0
-536 -541 542 0
c gate 543 -536 -541 0
-536 -543 0
-541 -543 0
536 541 543 0
c gate 544 -542 -543 0
-542 -544 0
-543 -544 0
542 543 544 0
c gate 545 -497 -500 0
-497 -545 0
-500 -545 0
497 500 545 0
c gate 546 544 -545 0
544 -546 0
-545 -546 0
-544 545 546 0
c gate 547 -544 545 0
-544 -547 0
545 -547 0
544 -545 547 0
c gate 548 -546 -547 0
-546 -548 0
-547 -548 0
546 547 548 0
c gate 549 535 -548 0
535 -549 0
-548 -549 0
-535 548 549 0
c gate 550 -535 548 0
-535 -550 0
548 -550 0
535 -548 550 0
c gate 551 -549 -550 0
-549 -551 0
-550 -551 0
549 550 551 0
c gate 552 534 551 0
534 -552 0
551 -552 0
-534 -551 552 0
c gate 553 -534 -551 0
-534 -553 0
-551 -553 0
534 551 553 0
c gate 554 -552 -553 0
-552 -554 0
-553 -554 0
552 553 554 0
c gate 555 -529 554 0
-529 -555 0
554 -555 0
529 -554 555 0
c gate 556 529 -554 0
529 -556 0
-554 -556 0
-529 554 556 0
c gate 557 -555 -556 0
-555 -557 0
-556 -557 0
555 556 557 0
c gate 558 -528 557 0
-528 -558 0
557 -558 0
528 -557 558 0
c gate 559 528 -557 0
528 -559 0
-557 -559 0
-528 557 559 0
c gate 560 -558 -559 0
-558 -560 0
-559 -560 0
558 559 560 0
c gate 561 -527 560 0
-527 -561 0
560 -561 0
527 -560 561 0
c gate 562 527 -560 0
527 -562 0
-560 -562 0
-527 560 562 0
c gate 563 -561 -562 0
-561 -563 0
-562 -563 0
561 562 563 0
c gate 564 526 563 0
526 -564 0
563 -564 0
-526 -563 564 0
c gate 565 -526 -563 0
-526 -565 0
-563 -565 0
526 563 565 0
c gate 566 -564 -565 0
-564 -566 0
-565 -566 0
564 565 566 0
c gate 567 -525 566 0
-525 -567 0
566 -567 0
525 -566 567 0
c gate 568 -524 -567 0
-524 -568 0
-567 -568 0
524 567 568 0
c gate 569 -523 568 0
-523 -569 0
568 -569 0
523 -568 569 0
c gate 570 525 -566 0
525 -570 0
-566 -570 0
-525 566 570 0
c gate 571 -561 -564 0
-561 -571 0
-564 -571 0
561 564 571 0
c gate 572 6 20 0
6 -572 0
20 -572 0
-6 -20 572 0
c gate 573 -555 -558 0
-555 -573 0
-558 -573 0
555 558 573 0
c gate 574 -546 -550 0
-546 -574 0
-550 -574 0
546 550 574 0
c gate 575 10 16 0
10 -575 0
16 -575 0
-10 -16 575 0
c gate 576 -539 -542 0
-539 -576 0
-542 -576 0
539 542 576 0
c gate 577 7 19 0
7 -577 0
19 -577 0
-7 -19 577 0
c gate 578 8 18 0
8 -578 0
18 -578 0
-8 -18 578 0
c gate 579 9 17 0
9 -579 0
17 -579 0
-9 -17 579 0
c gate 580 -578 -579 0
-578 -580 0
-579 -580 0
578 579 580 0
c gate 581 578 579 0
578 -581 0
579 -581 0
-578 -579 581 0
c gate 582 -580 -581 0
-580 -582 0
-581 -582 0
580 581 582 0
c gate 583 577 582 0
577 -583 0
582 -583 0
-577 -582 583 0
c gate 584 -577 -582 0
-577 -584 0
-582 -584 0
577 582 584 0
c gate 585 -583 -584 0
-583 -585 0
-584 -585 0
583 584 585 0
c gate 586 532 585 0
532 -586 0
585 -586 0
-532 -585 586 0
c gate 587 -532 -585 0
-532 -587 0
-585 -587 0
532 585 587 0
c gate 588 -586 -587 0
-586 -588 0
-587 -588 0
586 587 588 0
c gate 589 576 -588 0
576 -589 0
-588 -589 0
-576 588 589 0
c gate 590 -576 588 0
-576 -590 0
588 -590 0
576 -588 590 0
c gate 591 -589 -590 0
-589 -591 0
-590 -591 0
589 590 591 0
c gate 592 575 591 0
575 -592 0
591 -592 0
-575 -591 592 0
c gate 593 -575 -591 0
-575 -593 0
-591 -593 0
575 591 593 0
c gate 594 -592 -593 0
-592 -594 0
-593 -594 0
592 593 594 0
c gate 595 552 594 0
552 -595 0
594 -595 0
-552 -594 595 0
c gate 596 -552 -594 0
-552 -596 0
-594 -596 0
552 594 596 0
c gate 597 -595 -596 0
-595 -597 0
-596 -597 0
595 596 597 0
c gate 598 -574 597 0
-574 -598 0
597 -598 0
574 -597 598 0
c gate 599 574 -597 0
574 -599 0
-597 -599 0
-574 597 599 0
c gate 600 -598 -599 0
-598 -600 0
-599 -600 0
598 599 600 0
c gate 601 -573 600 0
-573 -601 0
600 -601 0
573 -600 601 0
c gate 602 573 -600 0
573 -602 0
-600 -602 0
-573 600 602 0
c gate 603 -601 -602 0
-601 -603 0
-602 -603 0
601 602 603 0
c gate 604 572 603 0
572 -604 0
603 -604 0
-572 -603 604 0
c gate 605 -572 -603 0
-572 -605 0
-603 -605 0
572 603 605 0
c gate 606 -604 -605 0
-604 -606 0
-605 -606 0
604 605 606 0
c gate 607 571 -606 0
571 -607 0
-606 -607 0
-571 606 607 0
c gate 608 -570 -607 0
-570 -608 0
-607 -608 0
570 607 608 0
c gate 609 -569 608 0
-569 -609 0
608 -609 0
569 -608 609 0
c gate 610 -571 606 0
-571 -610 0
606 -610 0
571 -606 610 0
c gate 611 -601 -604 0
-601 -611 0
-604 -611 0
601 604 611 0
c gate 612 7 20 0
7 -612 0
20 -612 0
-7 -20 612 0
c gate 613 -595 -598 0
-595 -613 0
-598 -613 0
595 598 613 0
c gate 614 -586 -590 0
-586 -614 0
-590 -614 0
586 590 614 0
c gate 615 -581 -583 0
-581 -615 0
-583 -615 0
581 583 615 0
c gate 616 8 19 0
8 -616 0
19 -616 0
-8 -19 616 0
c gate 617 9 18 0
9 -617 0
18 -617 0
-9 -18 617 0
c gate 618 10 17 0
10 -618 0
17 -618 0
-10 -17 618 0
c gate 619 617 618 0
617 -619 0
618 -619 0
-617 -618 619 0
c gate 620 -617 -618 0
-617 -620 0
-618 -620 0
617 618 620 0
c gate 621 -619 -620 0
-619 -621 0
-620 -621 0
619 620 621 0
c gate 622 616 621 0
616 -622 0
621 -622 0
-616 -621 622 0
c gate 623 -616 -621 0
-616 -623 0
-621 -623 0
616 621 623 0
c gate 624 -622 -623 0
-622 -624 0
-623 -624 0
622 623 624 0
c gate 625 -615 624 0
-615 -625 0
624 -625 0
615 -624 625 0
c gate 626 615 -624 0
615 -626 0
-624 -626 0
-615 624 626 0
c gate 627 -625 -626 0
-625 -627 0
-626 -627 0
625 626 627 0
c gate 628 592 627 0
592 -628 0
627 -628 0
-592 -627 628 0
c gate 629 -592 -627 0
-592 -629 0
-627 -629 0
592 627 629 0
c gate 630 -628 -629 0
-628 -630 0
-629 -630 0
628 629 630 0
c gate 631 -614 630 0
-614 -631 0
630 -631 0
614 -630 631 0
c gate 632 614 -630 0
614 -632 0
-630 -632 0
-614 630 632 0
c gate 633 -631 -632 0
-631 -633 0
-632 -633 0
631 632 633 0
c gate 634 -613 633 0
-613 -634 0
633 -634 0
613 -633 634 0
c gate 635 613 -633 0
613 -635 0
-633 -635 0
-613 633 635 0
c gate 636 -634 -635 0
-634 -636 0
-635 -636 0
634 635 636 0
c gate 637 612 636 0
612 -637 0
636 -637 0
-612 -636 637 0
c gate 638 -612 -636 0
-612 -638 0
-636 -638 0
612 636 638 0
c gate 639 -637 -638 0
-637 -639 0
-638 -639 0
637 638 639 0
c gate 640 -611 639 0
-611 -640 0
639 -640 0
611 -639 640 0
c gate 641 -610 -640 0
-610 -641 0
-640 -641 0
610 640 641 0
c gate 642 -609 641 0
-609 -642 0
641 -642 0
609 -641 642 0
c gate 643 -634 -637 0
-634 -643 0
-637 -643 0
634 637 643 0
c gate 644 8 20 0
8 -644 0
20 -644 0
-8 -20 644 0
c gate 645 -628 -631 0
-628 -645 0
-631 -645 0
628 631 645 0
c gate 646 -619 -622 0
-619 -646 0
-622 -646 0
619 622 646 0
c gate 647 10 18 0
10 -647 0
18 -647 0
-10 -18 647 0
c gate 648 9 19 0
9 -648 0
19 -648 0
-9 -19 648 0
c gate 649 647 -648 0
647 -649 0
-648 -649 0
-647 648 649 0
c gate 650 -647 648 0
-647 -650 0
648 -650 0
647 -648 650 0
c gate 651 -649 -650 0
-649 -651 0
-650 -651 0
649 650 651 0
c gate 652 -646 -651 0
-646 -652 0
-651 -652 0
646 651 652 0
c gate 653 646 651 0
646 -653 0
651 -653 0
-646 -651 653 0
c gate 654 -652 -653 0
-652 -654 0
-653 -654 0
652 653 654 0
c gate 655 625 654 0
625 -655 0
654 -655 0
-625 -654 655 0
c gate 656 -625 -654 0
-625 -656 0
-654 -656 0
625 654 656 0
c gate 657 -655 -656 0
-655 -657 0
-656 -657 0
655 656 657 0
c gate 658 -645 657 0
-645 -658 0
657 -658 0
645 -657 658 0
c gate 659 645 -657 0
645 -659 0
-657 -659 0
-645 657 659 0
c gate 660 -658 -659 0
-658 -660 0
-659 -660 0
658 659 660 0
c gate 661 644 660 0
644 -661 0
660 -661 0
-644 -660 661 0
c gate 662 -644 -660 0
-644 -662 0
-660 -662 0
644 660 662 0
c gate 663 -661 -662 0
-661 -663 0
-662 -663 0
661 662 663 0
c gate 664 643 -663 0
643 -664 0
-663 -664 0
-643 663 664 0
c gate 665 611 -639 0
611 -665 0
-639 -665 0
-611 639 665 0
c gate 666 -664 -665 0
-664 -666 0
-665 -666 0
664 665 666 0
c gate 667 -642 666 0
-642 -667 0
666 -667 0
642 -666 667 0
c gate 668 -643 663 0
-643 -668 0
663 -668 0
643 -663 668 0
c gate 669 -658 -661 0
-658 -669 0
-661 -669 0
658 661 669 0
c gate 670 9 20 0
9 -670 0
20 -670 0
-9 -20 670 0
c gate 671 10 19 0
10 -671 0
19 -671 0
-10 -19 671 0
c gate 672 -617 -652 0
-617 -672 0
-652 -672 0
617 652 672 0
c gate 673 671 -672 0
671 -673 0
-672 -673 0
-671 672 673 0
c gate 674 -652 -671 0
-652 -674 0
-671 -674 0
652 671 674 0
c gate 675 -673 -674 0
-673 -675 0
-674 -675 0
673 674 675 0
c gate 676 655 -675 0
655 -676 0
-675 -676 0
-655 675 676 0
c gate 677 -655 675 0
-655 -677 0
675 -677 0
655 -675 677 0
c gate 678 -676 -677 0
-676 -678 0
-677 -678 0
676 677 678 0
c gate 679 670 -678 0
670 -679 0
-678 -679 0
-670 678 679 0
c gate 680 -670 678 0
-670 -680 0
678 -680 0
670 -678 680 0
c gate 681 -679 -680 0
-679 -681 0
-680 -681 0
679 680 681 0
c gate 682 -669 681 0
-669 -682 0
681 -682 0
669 -681 682 0
c gate 683 -668 -682 0
-668 -683 0
-682 -683 0
668 682 683 0
c gate 684 -667 683 0
-667 -684 0
683 -684 0
667 -683 684 0
c gate 685 673 679 0
673 -685 0
679 -685 0
-673 -679 685 0
c gate 686 -669 685 0
-669 -686 0
685 -686 0
669 -685 686 0
c gate 687 -684 686 0
-684 -687 0
686 -687 0
684 -686 687 0
c gate 688 464 -470 0
464 -688 0
-470 -688 0
-464 470 688 0
c gate 689 406 688 0
406 -689 0
688 -689 0
-406 -688 689 0
c gate 690 -387 -689 0
-387 -690 0
-689 -690 0
387 689 690 0
c gate 691 -687 690 0
-687 -691 0
690 -691 0
687 -690 691 0
c PO
-691 0
